proyfinal/src/viki/013/experimentInOfficeAgust.take6.output/370f7590-4c31-48b6-a903-3f179a53e1b7.als.dat
{'cnf.clauses': '118081',
 'cnf.totvars': '69608',
 'conflict literals': '1',
 'conflicts': '2',
 'decisions': '1155',
 'memused.mb': '16.09',
 'outcome': 'UNSAT',
 'propagations': '18894',
 'restarts': '1',
 'solver.msecs': 37,
 'task.msecs': 88}
