proyfinal/src/viki/013/experimentInOfficeAgust.take6.output/370f7590-4c31-48b6-a903-3f179a53e1b7.als.out
Reading from standard input... Use '--help' for help.
============================[ Problem Statistics ]=============================
|                                                                             |
|  Number of variables:         69608                                         |
|  Number of clauses:          118081                                         |
|  Parse time:                   0.03 s                                       |
|                                                                             |
============================[ Search Statistics ]==============================
| Conflicts |          ORIGINAL         |          LEARNT          | Progress |
|           |    Vars  Clauses Literals |    Limit  Clauses Lit/Cl |          |
===============================================================================
===============================================================================
restarts              : 1
conflicts             : 2              (54 /sec)
decisions             : 1155           (0.00 % random) (31149 /sec)
propagations          : 18894          (509547 /sec)
conflict literals     : 1              (0.00 % deleted)
Memory used           : 16.09 MB
CPU time              : 0.03708 s

UNSATISFIABLE
